c A SAT instance generated from a 3-CNF formula that had 26 clauses and 13 variables
p cnf 13 26
-7 -8 -13 0
-10 -7 -8 0
6 3 -10 0
8 9 -10 0
-4 -13 3 0
7 -6 -12 0
-2 10 -5 0
-4 12 -6 0
-5 -10 -2 0
-12 -10 5 0
10 8 3 0
-6 12 3 0
8 -13 -9 0
-3 9 13 0
-12 9 -2 0
3 2 9 0
7 -13 -12 0
3 -1 -7 0
1 10 -13 0
1 6 -3 0
-2 13 10 0
10 4 -9 0
13 8 11 0
13 -1 -6 0
-2 -8 -3 0
-5 -12 -11 0
